6

0   20   5   12   3   17
20   0   3   15   20   7
5   3   0   3   17   16
12   15   3   0   0   13
3   20   17   0   0   5
17   7   16   13   5   0

0   19   10   20   25   25
19   0   27   39   38   44
10   27   0   28   35   33
20   39   28   0   7   11
25   38   35   7   0   18
25   44   33   11   18   0